N = 10;
M = 5;
T = 12;

R = [|
    8, 4, 2, 2, 5, 6, 4, 7, 2, 7|
    4, 4, 7, 5, 3, 1, 4, 8, 2, 3|
    8, 5, 4, 2, 5, 6, 6, 9, 5, 3|
    7, 6, 7, 6, 4, 3, 7, 9, 2, 3|
    5, 5, 3, 3, 6, 4, 7, 9, 7, 5|];

D = [50, 13, 42, 30, 61, 42, 7, 27, 47, 36];

tau = [10, 5, 9, 7, 8, 3, 9, 7, 4, 7];